NAME: S101D3_25
COMMENT: 1989.13
VEHICLE: 31
TIME: 600
DIMENSION: 101
CAPACITY: 160
DELIVERY_SECTION
0 0 0
1 1 16
2 1 1.6
3 1 1.6
4 1 1.6
5 1 0.2
6 2 16
7 2 16
8 2 1
9 3 40
10 3 16
11 3 16
12 3 1.6
13 3 1.6
14 3 1.6
15 3 1.6
16 3 0.6
17 4 16
18 4 8
19 4 1.6
20 4 1.6
21 4 1.6
22 4 0.2
23 5 16
24 5 16
25 5 1.6
26 5 1.6
27 5 1.6
28 5 0.2
29 6 40
30 6 1.6
31 6 1.6
32 6 1.6
33 6 0.2
34 7 40
35 7 16
36 7 16
37 7 1.6
38 7 1.4
39 8 16
40 8 16
41 8 1
42 9 40
43 9 16
44 9 1.6
45 9 1.6
46 9 0.8
47 10 40
48 10 16
49 10 1.6
50 10 0.4
51 11 40
52 11 16
53 11 8
54 11 1.6
55 11 1.6
56 11 0.8
57 12 16
58 12 16
59 12 1.6
60 12 1.6
61 12 1.6
62 12 1.2
63 13 40
64 13 16
65 13 16
66 13 1.6
67 13 0.4
68 14 40
69 14 16
70 14 8
71 14 1.6
72 14 1.6
73 14 1.6
74 14 0.2
75 15 40
76 15 16
77 15 1.6
78 15 1.6
79 15 0.8
80 16 40
81 16 1.6
82 16 1.6
83 16 0.8
84 17 40
85 17 16
86 17 16
87 17 1.6
88 17 1.6
89 17 1.6
90 17 1.6
91 17 0.6
92 18 40
93 18 16
94 18 16
95 18 1.6
96 18 1.6
97 18 1.6
98 18 0.2
99 19 40
100 19 8
101 19 1.6
102 19 1.6
103 19 0.8
104 20 40
105 20 8
106 20 1.6
107 20 1.6
108 20 0.8
109 21 40
110 21 16
111 21 16
112 21 1.6
113 21 1.6
114 21 1.6
115 21 0.2
116 22 40
117 22 16
118 22 16
119 22 1.6
120 22 1.6
121 22 1.6
122 22 1.6
123 22 0.6
124 23 40
125 23 1.6
126 23 1.6
127 23 0.8
128 24 40
129 24 16
130 24 1.6
131 24 1.6
132 24 0.8
133 25 40
134 25 16
135 25 8
136 25 1.6
137 25 1.6
138 25 1.6
139 25 0.2
140 26 40
141 26 16
142 26 16
143 26 1.6
144 26 0.4
145 27 16
146 27 16
147 27 1.6
148 27 1.6
149 27 1.6
150 27 1.2
151 28 40
152 28 16
153 28 8
154 28 1.6
155 28 1.6
156 28 0.8
157 29 40
158 29 16
159 29 1.6
160 29 0.4
161 30 40
162 30 16
163 30 1.6
164 30 1.4
165 31 16
166 31 16
167 31 1
168 32 40
169 32 16
170 32 16
171 32 1.6
172 32 1.4
173 33 40
174 33 1.6
175 33 1.6
176 33 1.6
177 33 0.2
178 34 16
179 34 16
180 34 1.6
181 34 1.6
182 34 0.8
183 35 16
184 35 8
185 35 1.6
186 35 1.6
187 35 1.6
188 35 0.2
189 36 40
190 36 16
191 36 16
192 36 1.6
193 36 1.6
194 36 1.6
195 36 1.6
196 36 0.6
197 37 16
198 37 16
199 37 1
200 38 16
201 38 1.6
202 38 1.6
203 38 1.6
204 38 1.2
205 39 16
206 39 8
207 39 1
208 40 40
209 40 16
210 40 16
211 40 1.6
212 40 1.6
213 40 1.6
214 40 1.2
215 41 16
216 41 1.6
217 41 1.6
218 41 1.6
219 41 1.2
220 42 40
221 42 8
222 42 1
223 43 16
224 43 1.6
225 43 1.6
226 43 1.6
227 43 1.6
228 43 0.6
229 44 40
230 44 16
231 44 8
232 44 1.6
233 44 1.6
234 44 1.6
235 44 1.6
236 44 0.6
237 45 16
238 45 1
239 46 40
240 46 16
241 46 8
242 46 1.6
243 46 1.6
244 46 1.6
245 46 1.2
246 47 16
247 47 1.6
248 47 1.6
249 47 1.6
250 47 0.2
251 48 40
252 48 16
253 48 1
254 49 16
255 49 8
256 50 40
257 50 16
258 50 16
259 50 1.6
260 50 1.6
261 50 1.6
262 50 1.6
263 50 0.6
264 51 16
265 51 1.6
266 51 1.6
267 51 0.8
268 52 16
269 52 16
270 52 1.6
271 52 1.4
272 53 16
273 53 8
274 53 1.6
275 53 1.6
276 53 1.6
277 53 0.2
278 54 40
279 54 16
280 54 16
281 54 1.6
282 54 1.4
283 55 16
284 55 1.6
285 55 1.6
286 55 0.8
287 56 16
288 56 1.6
289 56 1.6
290 56 1.6
291 56 1.2
292 57 16
293 57 8
294 57 1.6
295 57 1.6
296 57 1.6
297 57 1.6
298 57 0.6
299 58 40
300 58 16
301 58 1.6
302 58 1.4
303 59 16
304 59 1.6
305 59 1.6
306 59 0.8
307 60 40
308 60 8
309 61 16
310 61 8
311 61 1.6
312 61 1.6
313 61 1.6
314 61 1.6
315 61 0.6
316 62 16
317 62 16
318 62 1.6
319 62 0.4
320 63 16
321 63 1.6
322 63 1.6
323 63 0.8
324 64 40
325 64 16
326 64 8
327 64 1.6
328 64 1.6
329 64 1.6
330 64 0.2
331 65 16
332 65 8
333 65 1.6
334 65 1.6
335 65 1.6
336 65 1.2
337 66 16
338 66 8
339 67 16
340 67 1.6
341 67 1.6
342 67 0.8
343 68 40
344 68 16
345 68 16
346 68 1.6
347 68 1.6
348 68 1.6
349 68 1.6
350 68 0.6
351 69 16
352 69 8
353 69 1.6
354 69 0.4
355 70 40
356 70 8
357 71 16
358 71 1.6
359 71 1.6
360 71 1.6
361 71 0.2
362 72 40
363 72 16
364 72 16
365 72 1.6
366 72 1.6
367 72 0.8
368 73 16
369 73 1.6
370 73 1.6
371 73 1.6
372 73 0.2
373 74 40
374 74 16
375 74 8
376 74 1.6
377 74 0.4
378 75 16
379 75 1.6
380 75 1.6
381 75 1.6
382 75 1.2
383 76 40
384 76 16
385 76 1.6
386 76 1.6
387 76 0.8
388 77 16
389 77 1.6
390 77 0.4
391 78 40
392 78 16
393 78 16
394 78 1.6
395 78 1.6
396 78 0.8
397 79 16
398 79 8
399 80 16
400 80 16
401 80 1.6
402 80 1.4
403 81 16
404 81 8
405 81 1.6
406 81 1.6
407 81 0.8
408 82 40
409 82 16
410 82 16
411 82 1.6
412 82 1.6
413 82 1.6
414 82 1.6
415 82 0.6
416 83 16
417 83 8
418 83 1.6
419 83 1.4
420 84 16
421 84 8
422 85 40
423 86 40
424 86 16
425 86 16
426 86 1.6
427 86 1.6
428 86 1.6
429 86 0.2
430 87 16
431 87 8
432 87 1.6
433 87 1.6
434 87 1.6
435 87 1.6
436 87 0.6
437 88 40
438 88 8
439 88 1.6
440 88 0.4
441 89 40
442 89 8
443 89 1.6
444 89 1.6
445 89 0.8
446 90 40
447 90 16
448 90 8
449 90 1.6
450 90 1.6
451 90 1.6
452 90 1.6
453 90 0.6
454 91 16
455 91 16
456 91 1.6
457 91 1.4
458 92 40
459 92 16
460 92 8
461 92 1.6
462 92 1.6
463 92 0.8
464 93 40
465 93 16
466 93 8
467 94 40
468 94 16
469 94 8
470 95 40
471 95 1
472 96 40
473 96 16
474 96 16
475 96 1.6
476 96 1.6
477 96 1.6
478 96 1.2
479 97 40
480 97 16
481 97 16
482 97 1.6
483 97 0.4
484 98 40
485 98 8
486 98 1.6
487 98 1.6
488 98 1.6
489 98 1.6
490 98 0.6
491 99 40
492 99 8
493 100 40
494 100 16
495 100 16
496 100 1.6
497 100 1.6
498 100 1.6
499 100 1.6
500 100 0.6
PICKUP_SECTION
NODE_SECTION
35 35

41 49

35 17

55 45

55 20

15 30

25 30

20 50

10 43

55 60

30 60

20 65

50 35

30 25

15 10

30  5

10 20

 5 30

20 40

15 60

45 65

45 20

45 10

55  5

65 35

65 20

45 30

35 40

41 37

64 42

40 60

31 52

35 69

53 52

65 55

63 65

 2 60

20 20

 5  5

60 12

40 25

42  7

24 12

23  3

11 14

 6 38

 2 48

 8 56

13 52
 
6 68

47 47

49 58

27 43

37 31

57 29

63 23

53 12

32 12

36 26

21 24

17 34

12 24

24 58

27 69

15 77

62 77

49 73

67  5

56 39

37 47

37 56

57 68

47 16

44 17

46 13

49 11

49 42

53 43

61 52

57 48

56 37

55 54

15 47

14 37

11 31

16 22

 4 18

28 18

26 52

26 35

31 67

15 19

22 22

18 24

26 27

25 24

22 27

25 21

19 21

20 26

18 18
DISTANCE_SECTION
DEPOT_SECTION
0
EOF